BEGIN IONS
TITLE=PC(PGF1alpha/22:6(4Z,7Z,10Z,13Z,16Z,19Z))
SMILES=CCCCCC@@HO
PRECURSORTYPE=[M+H]+
COLLISIONENERGY=10.0
INSTRUMENTTYPE=HCD
COMMENT="In silico generated spectrum by Fiora OS v0.1.0"
906.5854755900899 0.24612045288085938 CC/C=C\C/C=C\C/C=C\C/C=C\C/C=C\C/C=C\CCC(=O)OC@HCOP(=O)([O-])OCCN+(C)C//[M+H]+
57.06987670808999 0.0012485487386584282 CCCC//[M-H]+
71.08552677208999 0.0015523125184699893 CCCCC//[M-H]+
100.08826642409 0.0031058108434081078 CCCCC[CH]O//[M-H]+
804.48101052209 0.003057875670492649 C=C[C@@h]1C@@HC@@HC[C@H]1O//[M-H]+
888.575459486 0.002360690850764513 CC/C=C\C/C=C\C/C=C\C/C=C\C/C=C\C/C=C\CCC(=O)OC@HCOP(=O)([O-])OCCN+(C)C//[M]+
887.56708587409 0.02812790870666504 CC/C=C\C/C=C\C/C=C\C/C=C\C/C=C\C/C=C\CCC(=O)OC@HCOP(=O)([O-])OCCN+(C)C//[M-H]+
790.4653604580899 0.0010008384706452489 CC/C=C\C/C=C\C/C=C\C/C=C\C/C=C\C/C=C\CCC(=O)OC@HCOP(=O)([O-])OCCN+(C)C//[M-3H]+
887.56708587409 0.002026958856731653 CC/C=C\C/C=C\C/C=C\C/C=C\C/C=C\C/C=C\CCC(=O)OC@HCOP(=O)([O-])OCCN+(C)C//[M-H]+
19.01784113609 0.009557841811329126 O//[M+H]+
887.56708587409 0.0032752526458352804 CC/C=C\C/C=C\C/C=C\C/C=C\C/C=C\C/C=C\CCC(=O)OC@HCOP(=O)([O-])OCCN+(C)C//[M-H]+
678.4129309620901 0.0013166849967092276 CC/C=C\C/C=C\C/C=C\C/C=C\C/C=C\C/C=C\CCC(=O)OC@HCOP(=O)([O-])OCCN+(C)C//[M-H]+
311.25807140009 0.0020137864630669355 CCCCCC[C@@h]1C@@HC@HC[C@@h]1O//[M-H]+
339.25298602008996 0.03245394676923752 CCCCCC@H/C=C/[C@@h]1C@@HC@@HC[C@H]1O//[M-H]+
568.33976602209 0.14936257898807526 CC/C=C\C/C=C\C/C=C\C/C=C\C/C=C\C/C=C\CCC(=O)OC@HCOP(=O)([O-])OCCN+(C)C//[M+H]+
357.26355070408994 0.003117065876722336 CCCCCC@H/C=C/[C@@h]1C@@HC@@HC[C@H]1O//[M+H]+
550.32920133809 0.012815228663384914 CC/C=C\C/C=C\C/C=C\C/C=C\C/C=C\C/C=C\CCC(=O)OC@HCOP(=O)([O-])OCCN+(C)C//[M-H]+
578.3457939059999 0.002960008103400469 CCCCCC@H/C=C/[C@@h]1C@@HC@@HC[C@H]1O//[M]+
577.33742029409 0.030111582949757576 CCCCCC@H/C=C/[C@@h]1C@@HC@@HC[C@H]1O//[M-H]+
329.24750671609 0.002531866542994976 CC/C=C\C/C=C\C/C=C\C/C=C\C/C=C\C/C=C\CCC(=O)O//[M+H]+
725.5350810960899 0.0012065907940268517 CC/C=C\C/C=C\C/C=C\C/C=C\C/C=C\C/C=C\CCC(=O)OC@@HCOC(=O)CCCCCC[C@@h]1C@@HC@HC[C@@h]1O//[M+H]+
724.527804644 0.0018646189710125327 CC/C=C\C/C=C\C/C=C\C/C=C\C/C=C\C/C=C\CCC(=O)OC@@HCOC(=O)CCCCCC[C@@h]1C@@HC@HC[C@@h]1O//[M]+
723.51943103209 0.038313210010528564 CC/C=C\C/C=C\C/C=C\C/C=C\C/C=C\C/C=C\CCC(=O)OC@@HCOC(=O)CCCCCC[C@@h]1C@@HC@HC[C@@h]1O//[M-H]+
183.06604455800002 0.005070459563285112 CN+(C)CCOP(=O)([O-])O//[M]+
15.995463199909999 0.004359378479421139 [O-]//[M]+
104.10699048808999 0.0013647250598296523 CN+(C)CCO//[M]+
819.4817733339099 0.001787053421139717 CC/C=C\C/C=C\C/C=C\C/C=C\C/C=C\C/C=C\CCC(=O)OC@HCOP(=O)([O-])O//[M]+
88.11207586808999 0.00103498506359756 CCN+(C)C//[M]+
87.10370225617999 0.008224652148783207 CCN+(C)C//[M-H]+
86.09642580408999 0.011802508495748043 CCN+(C)C//[M-2H]+
85.08805219217999 0.0019315838580951095 CCN+(C)C//[M-3H]+
73.08805219217999 0.002003903966397047 CN+(C)C//[M-H]+
846.50469985 0.003967077471315861 CC/C=C\C/C=C\C/C=C\C/C=C\C/C=C\C/C=C\CCC(=O)OC@HCOP(=O)([O-])OCC//[M-H]+
60.08022716018 0.002686966210603714 CN+C//[M+H]+
58.06457709618 0.0016727085458114743 CN+C//[M-H]+
596.35581001009 0.055958326905965805 CCCCCC@H/C=C/[C@@h]1C@@HC@@HC[C@H]1O//[M+H]+
311.23694203209004 0.015817463397979736 CC/C=C\C/C=C\C/C=C\C/C=C\C/C=C\C/C=C\CCC=O//[M-H]+
283.24202741209 0.0027298536151647568 CC/C=C\C/C=C\C/C=C\C/C=C\C/C=C\C/C=C\CC//[M-H]+
255.21072728408998 0.0011316784657537937 C=CC/C=C\C/C=C\C/C=C\C/C=C\C/C=C\CC//[M-H]+
662.3663746940899 0.0015134515706449747 CCCCCC@H/C=C/[C@@h]1C@@HC@@HC[C@H]1O//[M-3H]+
241.19507722008998 0.0017022188985720277 CC/C=C\C/C=C\C/C=C\C/C=C\C/C=C\CC//[M-3H]+
676.38202475809 0.0012113102711737156 C=CCCC(=O)OC@HCOP(=O)([O-])OCCN+(C)C//[M-H]+
674.3663746940899 0.0030237638857215643 C=CCCC(=O)OC@HCOP(=O)([O-])OCCN+(C)C//[M-3H]+
229.19507722008998 0.004923875909298658 C/C=C\C/C=C\C/C=C\C/C=C\C/C=C\CC//[M-H]+
690.39767482209 0.007068068254739046 C/C=C\CCC(=O)OC@HCOP(=O)([O-])OCCN+(C)C//[M-H]+
688.38202475809 0.0011182071175426245 C/C=C\CCC(=O)OC@HCOP(=O)([O-])OCCN+(C)C//[M-3H]+
217.19507722008998 0.004412529990077019 C=CC/C=C\C/C=C\C/C=C\C/C=C\CC//[M+H]+
215.17942715609 0.00425428943708539 C=CC/C=C\C/C=C\C/C=C\C/C=C\CC//[M-H]+
213.16377709209 0.0066286781802773476 C=CC/C=C\C/C=C\C/C=C\C/C=C\CC//[M-3H]+
702.3976748220899 0.005614385008811951 CC/C=C\CCC(=O)OC@HCOP(=O)([O-])OCCN+(C)C//[M-3H]+
201.16377709209 0.004419034346938133 CC/C=C\C/C=C\C/C=C\C/C=C\CC//[M-3H]+
718.4289749500899 0.002718859352171421 C=CC/C=C\CCC(=O)OC@HCOP(=O)([O-])OCCN+(C)C//[M+H]+
716.41332488609 0.002932032337412238 C=CC/C=C\CCC(=O)OC@HCOP(=O)([O-])OCCN+(C)C//[M-H]+
714.3976748220899 0.00470602186396718 C=CC/C=C\CCC(=O)OC@HCOP(=O)([O-])OCCN+(C)C//[M-3H]+
189.16377709209 0.006993195042014122 C/C=C\C/C=C\C/C=C\C/C=C\CC//[M-H]+
187.14812702809 0.0015772052574902773 C/C=C\C/C=C\C/C=C\C/C=C\CC//[M-3H]+
730.42897495009 0.006089580710977316 C/C=C\C/C=C\CCC(=O)OC@HCOP(=O)([O-])OCCN+(C)C//[M-H]+
728.41332488609 0.0011209301883354783 C/C=C\C/C=C\CCC(=O)OC@HCOP(=O)([O-])OCCN+(C)C//[M-3H]+
177.16377709209 0.0047977156937122345 C=CC/C=C\C/C=C\C/C=C\CC//[M+H]+
175.14812702809 0.0039370497688651085 C=CC/C=C\C/C=C\C/C=C\CC//[M-H]+
173.13247696409 0.006436163559556007 C=CC/C=C\C/C=C\C/C=C\CC//[M-3H]+
742.4289749500899 0.0065302494913339615 CC/C=C\C/C=C\CCC(=O)OC@HCOP(=O)([O-])OCCN+(C)C//[M-3H]+
161.13247696409 0.005028888117522001 CC/C=C\C/C=C\C/C=C\CC//[M-3H]+
758.4602750780899 0.0027850852347910404 C=CC/C=C\C/C=C\CCC(=O)OC@HCOP(=O)([O-])OCCN+(C)C//[M+H]+
756.44462501409 0.0030861366540193558 C=CC/C=C\C/C=C\CCC(=O)OC@HCOP(=O)([O-])OCCN+(C)C//[M-H]+
754.4289749500899 0.004762527532875538 C=CC/C=C\C/C=C\CCC(=O)OC@HCOP(=O)([O-])OCCN+(C)C//[M-3H]+
149.13247696409 0.007314636372029781 C/C=C\C/C=C\C/C=C\CC//[M-H]+
147.11682690009 0.0016508938279002905 C/C=C\C/C=C\C/C=C\CC//[M-3H]+
770.46027507809 0.006089580710977316 C/C=C\C/C=C\C/C=C\CCC(=O)OC@HCOP(=O)([O-])OCCN+(C)C//[M-H]+
768.44462501409 0.0011209301883354783 C/C=C\C/C=C\C/C=C\CCC(=O)OC@HCOP(=O)([O-])OCCN+(C)C//[M-3H]+
137.13247696409 0.0047977156937122345 C=CC/C=C\C/C=C\CC//[M+H]+
135.11682690009 0.0039370497688651085 C=CC/C=C\C/C=C\CC//[M-H]+
133.10117683609 0.006436163559556007 C=CC/C=C\C/C=C\CC//[M-3H]+
782.4602750780899 0.0065302494913339615 CC/C=C\C/C=C\C/C=C\CCC(=O)OC@HCOP(=O)([O-])OCCN+(C)C//[M-3H]+
121.10117683608999 0.005028888117522001 CC/C=C\C/C=C\CC//[M-3H]+
798.4915752060899 0.0027850852347910404 C=CC/C=C\C/C=C\C/C=C\CCC(=O)OC@HCOP(=O)([O-])OCCN+(C)C//[M+H]+
796.47592514209 0.0030861366540193558 C=CC/C=C\C/C=C\C/C=C\CCC(=O)OC@HCOP(=O)([O-])OCCN+(C)C//[M-H]+
794.4602750780899 0.004762527532875538 C=CC/C=C\C/C=C\C/C=C\CCC(=O)OC@HCOP(=O)([O-])OCCN+(C)C//[M-3H]+
109.10117683608999 0.007314636372029781 C/C=C\C/C=C\CC//[M-H]+
107.08552677208999 0.0016508938279002905 C/C=C\C/C=C\CC//[M-3H]+
810.49157520609 0.006118484307080507 C/C=C\C/C=C\C/C=C\C/C=C\CCC(=O)OC@HCOP(=O)([O-])OCCN+(C)C//[M-H]+
808.47592514209 0.0010935019236057997 C/C=C\C/C=C\C/C=C\C/C=C\CCC(=O)OC@HCOP(=O)([O-])OCCN+(C)C//[M-3H]+
97.10117683608999 0.00479193776845932 C=CC/C=C\CC//[M+H]+
95.08552677208999 0.00393778458237648 C=CC/C=C\CC//[M-H]+
93.06987670808999 0.00646106107160449 C=CC/C=C\CC//[M-3H]+
822.4915752060899 0.007105632219463587 CC/C=C\C/C=C\C/C=C\C/C=C\CCC(=O)OC@HCOP(=O)([O-])OCCN+(C)C//[M-3H]+
81.06987670808999 0.0054127830080688 CC/C=C\CC//[M-3H]+
838.5228753340899 0.0024260678328573704 C=CC/C=C\C/C=C\C/C=C\C/C=C\CCC(=O)OC@HCOP(=O)([O-])OCCN+(C)C//[M+H]+
836.50722527009 0.003049242775887251 C=CC/C=C\C/C=C\C/C=C\C/C=C\CCC(=O)OC@HCOP(=O)([O-])OCCN+(C)C//[M-H]+
834.4915752060899 0.004425586201250553 C=CC/C=C\C/C=C\C/C=C\C/C=C\CCC(=O)OC@HCOP(=O)([O-])OCCN+(C)C//[M-3H]+
69.06987670808999 0.008552799001336098 C/C=C\CC//[M-H]+
67.05422664409 0.0017731321277096868 C/C=C\CC//[M-3H]+
850.52287533409 0.00296195806004107 C/C=C\C/C=C\C/C=C\C/C=C\C/C=C\CCC(=O)OC@HCOP(=O)([O-])OCCN+(C)C//[M-H]+
57.06987670808999 0.002908135997131467 C=CCC//[M+H]+
55.054226644089994 0.0025195078924298286 C=CCC//[M-H]+
53.038576580089995 0.0017213564133271575 C=CCC//[M-3H]+
862.5228753340899 0.0011330428533256054 CC/C=C\C/C=C\C/C=C\C/C=C\C/C=C\CCC(=O)OC@HCOP(=O)([O-])OCCN+(C)C//[M-3H]+
END IONS
